language ESSENCE' 1.0

letting jobs = 102
letting horizon = 838
letting resourcesRenew = 2
letting resourcesNonrenew = 2
letting resourceLimits = [33, 31, 486, 467]
letting successors = [[2, 3, 4, 5, 6, 7, 8, 10, 11, 14, 15, 16, 17, 18, 20, 23], [58, 52, 39, 37, 33, 31, 28, 25, 24, 22, 19], [45, 44, 43, 34, 27, 26, 19, 12], [56, 47, 44, 38, 37, 19, 9], [46, 43, 41, 39, 35, 33, 26, 13], [64, 58, 53, 52, 49, 48, 40, 37, 33, 28, 24], [64, 52, 49, 48, 39, 36, 35, 33, 26, 24], [48, 45, 44, 43, 41, 39, 38, 35, 33, 29, 26], [52, 48, 41, 39, 35, 30, 25, 21], [58, 56, 52, 47, 44, 40, 31, 29, 25], [64, 56, 55, 52, 48, 44, 40, 36, 35, 29, 26], [64, 60, 59, 58, 53, 52, 51, 50, 49, 46, 42, 40, 38, 37, 35, 33], [58, 53, 52, 48, 47, 45, 42, 40, 38, 30], [64, 58, 56, 53, 47, 44, 42, 37, 34, 30], [64, 59, 53, 50, 48, 44, 33, 32], [70, 64, 63, 60, 58, 56, 53, 50, 49, 46, 44, 42, 41, 37], [60, 56, 53, 50, 47, 44, 41, 40, 38, 35], [60, 59, 55, 52, 51, 49, 46, 42, 40, 35], [64, 62, 54, 48, 42, 40, 30], [68, 64, 54, 48, 46, 42, 30], [64, 60, 59, 58, 57, 51, 50, 49, 46, 42, 40], [69, 62, 60, 59, 56, 55, 51, 50, 42, 40, 35], [88, 76, 70, 68, 65, 61, 60, 59, 58, 57, 56, 54, 53, 50, 47, 45], [74, 68, 45, 44, 42, 30], [75, 74, 69, 68, 65, 64, 61, 59, 57, 55, 54, 53, 51, 50, 45], [88, 86, 81, 76, 74, 69, 68, 67, 65, 63, 62, 61, 60, 59, 58, 57, 51, 50], [68, 67, 63, 60, 57, 55, 50, 47, 46, 42], [76, 67, 59, 57, 56, 47, 46, 38], [81, 70, 68, 67, 63, 60, 57, 50, 46, 42], [88, 86, 81, 76, 75, 73, 69, 67, 63, 60, 59, 57, 55, 51, 50], [87, 76, 75, 74, 73, 71, 65, 57, 53, 50, 49, 45], [81, 67, 66, 63, 58, 57, 54, 51, 46], [88, 87, 85, 81, 80, 76, 70, 68, 65, 61, 57, 56, 55], [86, 85, 81, 75, 74, 72, 68, 66, 65, 62, 60, 57, 54], [101, 88, 86, 85, 80, 74, 72, 70, 68, 67, 66, 57, 54], [86, 79, 76, 74, 73, 70, 67, 63, 62, 47], [85, 76, 75, 74, 73, 71, 69, 67, 66, 65, 62, 61, 57], [88, 86, 78, 75, 74, 68, 66, 65, 63, 55, 54], [86, 80, 75, 74, 72, 71, 69, 66, 65, 57, 53], [101, 100, 86, 85, 81, 78, 74, 71, 70, 68, 67, 63], [88, 86, 79, 75, 74, 73, 72, 69, 67, 59], [88, 87, 86, 85, 84, 83, 76, 75, 73, 71, 66, 65, 61], [101, 85, 79, 78, 76, 70, 68, 67, 64, 63], [101, 84, 80, 79, 78, 77, 76, 73, 71, 65, 61], [98, 86, 85, 78, 72, 67, 63, 62], [98, 96, 87, 85, 84, 79, 78, 77, 74, 71, 62], [100, 99, 98, 85, 84, 81, 80, 78, 72, 71, 69], [101, 92, 85, 73, 69, 67, 63], [101, 100, 99, 98, 96, 92, 85, 84, 83, 82, 80, 78, 69], [101, 99, 98, 97, 96, 95, 84, 83, 79, 78, 77, 66], [100, 97, 96, 87, 83, 80, 79, 78, 72, 71, 70], [101, 100, 97, 96, 95, 94, 84, 83, 82, 79, 73, 72], [100, 99, 95, 85, 81, 79, 67], [100, 99, 97, 87, 83, 79, 77, 73, 71], [101, 100, 99, 97, 96, 93, 92, 84, 83, 77, 71], [100, 98, 96, 95, 94, 90, 86, 84, 79, 78, 74], [100, 99, 98, 97, 96, 95, 94, 84, 79, 78], [100, 97, 96, 94, 92, 84, 78, 75], [100, 95, 93, 92, 85, 83, 71], [101, 100, 99, 95, 94, 93, 92, 90, 83], [100, 99, 97, 96, 91, 89, 72], [101, 100, 95, 92, 90, 83, 82], [99, 96, 94, 90, 82, 80], [94, 83, 82, 72], [100, 98, 95, 93, 92, 90, 89], [100, 94, 93, 90, 82], [96, 84, 77], [99, 92, 73], [94, 93, 91, 90, 89], [98, 92, 91, 89], [94, 90, 82], [93, 92, 90], [98, 90, 89], [99, 91, 89], [101, 95, 89], [98, 93, 89], [90, 82], [93, 89], [93, 92], [95, 89], [83], [91], [89], [91], [97], [92], [90], [89], [102], [102], [102], [102], [102], [102], [102], [102], [102], [102], [102], [102], [102], []]
letting durations = [[0], [1, 8, 9], [1, 2, 6], [3, 4, 10], [2, 3, 10], [2, 3, 4], [1, 2, 3], [8, 9, 10], [4, 7, 8], [3, 5, 8], [5, 6, 9], [3, 5, 8], [1, 3, 6], [2, 7, 8], [2, 3, 9], [3, 4, 9], [5, 9, 10], [1, 3, 9], [4, 6, 9], [2, 8, 10], [1, 3, 9], [3, 5, 10], [1, 4, 6], [3, 4, 8], [3, 3, 4], [2, 7, 10], [2, 8, 9], [1, 4, 10], [1, 7, 8], [5, 6, 8], [6, 7, 9], [4, 6, 7], [1, 6, 10], [6, 7, 9], [2, 8, 9], [4, 7, 8], [2, 3, 7], [1, 2, 10], [6, 7, 9], [3, 4, 5], [5, 6, 10], [2, 4, 6], [1, 7, 9], [4, 6, 9], [1, 8, 9], [2, 8, 9], [1, 2, 3], [2, 6, 7], [1, 9, 10], [4, 5, 9], [5, 7, 10], [5, 9, 10], [4, 5, 9], [1, 6, 10], [4, 5, 9], [3, 4, 5], [6, 9, 10], [6, 8, 10], [2, 9, 10], [1, 2, 8], [2, 5, 7], [3, 4, 7], [4, 5, 6], [2, 3, 10], [2, 7, 10], [2, 3, 9], [2, 3, 8], [3, 6, 8], [4, 5, 6], [6, 7, 8], [1, 5, 7], [5, 6, 8], [1, 6, 10], [8, 9, 10], [4, 6, 9], [2, 6, 9], [2, 3, 8], [3, 8, 9], [4, 9, 10], [6, 7, 9], [1, 6, 7], [5, 9, 10], [2, 3, 6], [2, 3, 10], [1, 8, 10], [4, 6, 9], [5, 6, 7], [2, 3, 8], [3, 4, 10], [1, 2, 3], [4, 5, 10], [8, 9, 10], [2, 8, 10], [1, 3, 8], [2, 3, 6], [3, 7, 9], [6, 7, 8], [1, 2, 7], [5, 9, 10], [2, 7, 10], [2, 3, 10], [0]]
letting resourceUsage = [[[0, 0, 0, 0]], [[3, 3, 8, 8], [2, 2, 4, 8], [2, 1, 2, 8]], [[4, 3, 8, 6], [3, 3, 7, 6], [3, 1, 4, 4]], [[5, 3, 10, 6], [3, 3, 8, 5], [3, 1, 6, 3]], [[3, 3, 6, 6], [3, 3, 5, 6], [2, 3, 5, 5]], [[3, 4, 6, 7], [2, 4, 3, 3], [2, 4, 2, 3]], [[5, 1, 3, 8], [2, 1, 3, 6], [2, 1, 3, 2]], [[5, 5, 9, 8], [5, 4, 6, 7], [5, 4, 3, 1]], [[4, 4, 5, 9], [3, 4, 4, 6], [3, 4, 2, 4]], [[4, 5, 7, 3], [2, 4, 7, 3], [2, 2, 6, 3]], [[2, 3, 5, 10], [2, 3, 3, 5], [2, 3, 2, 4]], [[3, 4, 6, 8], [2, 3, 4, 5], [2, 3, 4, 3]], [[3, 5, 7, 8], [2, 3, 7, 8], [1, 1, 7, 8]], [[4, 2, 8, 7], [3, 1, 8, 4], [3, 1, 8, 3]], [[4, 3, 5, 7], [4, 1, 4, 6], [4, 1, 2, 5]], [[4, 4, 2, 6], [3, 4, 2, 5], [1, 4, 2, 4]], [[1, 2, 8, 7], [1, 2, 8, 6], [1, 1, 8, 4]], [[1, 3, 2, 6], [1, 2, 2, 4], [1, 2, 2, 3]], [[2, 3, 8, 10], [1, 2, 4, 9], [1, 2, 3, 7]], [[4, 4, 7, 9], [3, 3, 6, 8], [2, 3, 6, 6]], [[5, 1, 9, 9], [4, 1, 8, 9], [3, 1, 7, 8]], [[5, 4, 6, 6], [4, 4, 6, 6], [2, 4, 4, 6]], [[5, 1, 7, 5], [5, 1, 5, 3], [5, 1, 5, 2]], [[4, 5, 2, 7], [4, 3, 1, 5], [3, 3, 1, 4]], [[5, 4, 9, 6], [4, 3, 4, 7], [4, 3, 4, 6]], [[4, 5, 9, 4], [4, 5, 4, 3], [4, 5, 2, 2]], [[4, 5, 2, 9], [2, 4, 2, 5], [2, 4, 2, 3]], [[2, 4, 8, 9], [1, 4, 7, 7], [1, 3, 7, 3]], [[2, 3, 6, 6], [1, 2, 3, 2], [1, 2, 2, 2]], [[4, 2, 5, 5], [3, 1, 3, 5], [3, 1, 3, 3]], [[3, 3, 10, 3], [3, 2, 9, 2], [3, 2, 9, 1]], [[3, 3, 7, 6], [3, 2, 7, 6], [3, 2, 5, 4]], [[3, 2, 10, 8], [2, 2, 10, 7], [1, 2, 10, 6]], [[5, 4, 7, 5], [2, 3, 7, 5], [2, 3, 6, 4]], [[5, 2, 6, 10], [4, 1, 5, 10], [4, 1, 5, 9]], [[4, 5, 7, 8], [4, 4, 5, 6], [4, 2, 3, 6]], [[4, 5, 9, 6], [3, 3, 9, 5], [3, 2, 8, 4]], [[4, 4, 10, 4], [3, 4, 7, 4], [3, 3, 7, 4]], [[3, 1, 5, 7], [3, 1, 5, 5], [3, 1, 3, 3]], [[4, 4, 3, 8], [4, 4, 2, 5], [4, 4, 2, 4]], [[4, 4, 8, 6], [4, 3, 6, 5], [4, 1, 5, 3]], [[3, 2, 7, 7], [2, 2, 5, 7], [2, 2, 3, 7]], [[2, 3, 8, 9], [2, 2, 7, 7], [2, 2, 7, 6]], [[4, 4, 4, 4], [4, 3, 3, 4], [4, 3, 3, 3]], [[3, 2, 6, 5], [3, 2, 6, 4], [3, 2, 5, 3]], [[1, 3, 8, 7], [1, 2, 7, 6], [1, 1, 6, 4]], [[3, 3, 8, 7], [1, 2, 7, 7], [1, 1, 6, 5]], [[5, 4, 7, 9], [4, 2, 6, 8], [3, 2, 5, 7]], [[2, 4, 3, 9], [2, 3, 2, 8], [2, 3, 2, 7]], [[4, 5, 4, 6], [3, 4, 3, 3], [3, 3, 3, 2]], [[3, 5, 6, 8], [1, 3, 4, 5], [1, 2, 2, 3]], [[4, 3, 5, 6], [4, 3, 4, 3], [4, 3, 2, 2]], [[4, 4, 9, 6], [4, 4, 8, 4], [4, 4, 7, 4]], [[2, 4, 8, 6], [2, 3, 6, 5], [2, 1, 4, 3]], [[3, 5, 7, 6], [2, 4, 4, 5], [1, 4, 1, 3]], [[3, 2, 2, 9], [3, 2, 2, 6], [3, 2, 2, 5]], [[4, 1, 8, 2], [4, 1, 7, 2], [3, 1, 6, 2]], [[3, 4, 8, 9], [1, 3, 5, 6], [1, 3, 3, 3]], [[5, 3, 8, 5], [4, 2, 5, 3], [3, 2, 2, 3]], [[4, 4, 9, 7], [2, 2, 9, 5], [2, 2, 8, 3]], [[3, 5, 6, 6], [2, 4, 5, 5], [2, 3, 4, 1]], [[3, 5, 9, 9], [3, 4, 6, 8], [2, 4, 3, 6]], [[3, 5, 10, 5], [2, 3, 8, 2], [2, 2, 4, 1]], [[4, 3, 10, 5], [4, 3, 6, 4], [3, 2, 5, 4]], [[4, 2, 8, 7], [3, 2, 7, 6], [3, 2, 4, 6]], [[3, 4, 8, 9], [3, 3, 6, 7], [3, 2, 3, 6]], [[4, 3, 6, 5], [4, 2, 5, 4], [4, 2, 5, 3]], [[5, 4, 4, 5], [4, 4, 3, 4], [4, 4, 3, 3]], [[4, 1, 6, 5], [3, 1, 6, 5], [3, 1, 6, 4]], [[3, 4, 1, 9], [2, 2, 1, 6], [1, 1, 1, 4]], [[2, 4, 5, 7], [2, 4, 5, 6], [2, 3, 5, 7]], [[2, 3, 3, 2], [1, 3, 2, 2], [1, 3, 2, 1]], [[1, 2, 9, 5], [1, 1, 7, 4], [1, 1, 6, 4]], [[1, 4, 5, 7], [1, 2, 5, 8], [1, 2, 5, 7]], [[4, 3, 3, 5], [3, 2, 2, 4], [2, 2, 1, 2]], [[3, 4, 2, 2], [3, 3, 2, 2], [3, 3, 2, 1]], [[4, 5, 10, 8], [3, 3, 7, 8], [2, 2, 4, 6]], [[2, 5, 10, 10], [2, 3, 10, 6], [2, 3, 10, 4]], [[5, 5, 5, 6], [2, 4, 4, 6], [1, 2, 4, 6]], [[4, 3, 3, 7], [3, 1, 1, 6], [3, 1, 1, 5]], [[1, 3, 4, 7], [1, 3, 2, 3], [1, 3, 2, 2]], [[4, 3, 6, 9], [2, 2, 4, 8], [1, 1, 4, 7]], [[3, 3, 5, 5], [3, 1, 5, 5], [3, 1, 1, 4]], [[2, 3, 8, 8], [2, 2, 4, 6], [2, 2, 4, 4]], [[2, 3, 8, 6], [2, 2, 8, 4], [2, 2, 8, 2]], [[3, 2, 8, 2], [3, 2, 7, 1], [2, 2, 7, 1]], [[2, 4, 6, 5], [2, 4, 4, 3], [1, 4, 4, 3]], [[5, 3, 9, 5], [3, 2, 8, 4], [2, 2, 5, 2]], [[4, 4, 9, 9], [3, 3, 7, 6], [3, 1, 7, 1]], [[1, 3, 8, 2], [1, 3, 5, 2], [1, 3, 2, 2]], [[2, 4, 7, 6], [1, 3, 5, 3], [1, 2, 4, 1]], [[2, 4, 4, 6], [1, 3, 2, 5], [1, 3, 1, 4]], [[4, 2, 10, 8], [3, 2, 7, 8], [3, 2, 3, 5]], [[3, 2, 6, 5], [1, 1, 6, 5], [1, 1, 6, 3]], [[3, 4, 5, 4], [3, 4, 5, 3], [2, 4, 5, 3]], [[4, 3, 8, 3], [3, 2, 8, 3], [3, 2, 5, 3]], [[3, 5, 9, 8], [2, 3, 6, 7], [2, 3, 2, 6]], [[4, 3, 9, 7], [3, 3, 8, 6], [3, 2, 7, 3]], [[2, 4, 10, 8], [2, 3, 7, 6], [2, 3, 5, 4]], [[3, 3, 8, 9], [3, 3, 5, 7], [3, 3, 4, 7]], [[4, 4, 9, 8], [2, 2, 8, 7], [2, 2, 7, 7]], [[0, 0, 0, 0]]]
